# Objective value = 95605
x66 0
x67 1
x68 0
x69 0
x70 1
x71 0
x72 0
x73 1
x74 0
x75 1
x76 1
x77 0
x78 1
x79 0
x80 0
x81 0
x82 1
x83 0
x84 1
x85 1
x86 0
x87 0
x88 1
x89 0
x90 1
x91 1
x92 0
x93 1
x94 0
x95 1
x96 0
x97 1
x98 1
x99 0
x100 1
x101 1
x102 0
x103 1
x104 0
x105 1
x106 1
x107 0
x108 1
x109 1
x110 1
x111 0
x112 1
x113 0
x114 1
x115 1
x116 0
x117 1
x118 1
x119 1
x120 1
x121 1
x122 0
x123 1
x124 0
x125 0
x126 1
x127 0
x128 0
x129 0
x130 0
x131 0
x132 0
x133 1
x134 0
x135 1
x136 1
x137 0
x138 1
x139 1
x140 1
x141 1
x142 1
x143 0
x144 0
x145 1
x146 0
x147 1
x148 1
x149 0
x150 1
x151 1
x152 1
x153 1
x154 1
x155 0
x156 1
x157 0
x158 1
x159 0
x160 1
x161 1
x162 0
x163 1
x164 1
x165 1
x166 1
x167 1
x168 0
x169 1
x170 1
x171 0
x172 1
x173 0
x174 1
x175 1
x176 0
x177 1
x178 1
x179 1
x180 1
x181 1
x182 0
x183 1
x184 1
x185 1
x186 1
x187 0
x188 1
x189 0
x190 0
x191 1
x192 0
x193 0
x194 0
x195 0
x196 0
x197 1
x198 0
x199 0
x200 0
x201 0
x202 0
x203 1
x204 0
x205 1
x206 1
x207 1
x208 1
x209 0
x210 1
x211 0
x212 1
x213 1
x214 1
x215 1
x216 1
x217 1
x218 0
x219 1
x220 0
x221 0
x222 1
x223 0
x224 0
x225 0
x226 0
x227 1
x228 0
x229 1
x230 1
x231 1
x232 0
x233 1
x234 1
x235 0
x236 0
x237 0
x238 1
x239 1
x240 1
x241 1
x242 1
x243 1
x244 1
x245 0
x246 1
x247 0
x248 0
x249 1
x250 1
x251 1
x252 1
x253 1
x254 1
x255 1
x256 0
x257 1
x258 1
x259 0
x260 0
x261 1
x262 1
x263 1
x264 0
x265 1
x266 1
x267 1
x268 0
x269 1
x270 1
x271 1
x272 1
x273 1
x274 0
x275 0
x276 0
x277 0
x278 1
x279 0
x280 0
x281 1
x282 0
x283 0
x284 0
x285 0
x286 0
x287 1
x288 0
x289 1
x290 1
x291 0
x292 1
x293 1
x294 1
x295 0
x296 1
x297 1
x298 1
x299 1
x300 0
x301 1
x302 1
x303 0
x304 0
x305 0
x306 1
x307 0
x308 0
x309 0
x310 1
x311 0
x312 0
x313 0
x314 0
x315 1
x316 0
x317 0
x318 1
x319 1
x320 1
x321 1
x322 0
x323 1
x324 1
x325 1
x326 0
x327 1
x328 1
x329 1
x330 1
x331 0
x332 1
x333 0
x334 0
x335 1
x336 1
x337 1
x338 1
x339 0
x340 1
x341 1
x342 1
x343 0
x344 1
x345 1
x346 1
x347 1
x348 0
x349 1
x350 0
x351 1
x352 1
x353 0
x354 1
x355 0
x356 0
x357 0
x358 1
x359 0
x360 0
x361 1
x362 0
x363 0
x364 0
x365 0
x366 1
x367 0
x368 1
x369 0
x370 0
x371 0
x372 0
x373 1
x374 1
x375 1
x376 1
x377 0
x378 1
x379 1
x380 0
x381 1
x382 1
x383 1
x384 1
x385 0
x386 1
x387 0
x388 1
x389 1
x390 0
x391 0
x392 1
x393 1
x394 1
x395 1
x396 1
x397 0
x398 1
x399 1
x400 0
x401 1
x402 1
x403 1
x404 1
x405 0
x406 1
x407 0
x408 1
x409 1
x410 0
x411 1
x412 0
x413 1
x414 1
x415 1
x416 1
x417 1
x418 0
x419 1
x420 1
x421 0
x422 1
x423 1
x424 1
x425 1
x426 0
x427 1
x428 0
x429 1
x430 1
x431 0
x432 1
x433 1
x434 1
x435 0
x436 1
x437 0
x438 0
x439 1
x440 0
x441 0
x442 1
x443 0
x444 0
x445 0
x446 1
x447 0
x448 1
x449 1
x450 1
x451 1
x452 1
x453 0
x454 1
x455 1
x456 0
x457 0
x458 1
x459 0
x460 1
x461 1
x462 1
x463 1
x464 1
x465 0
x466 1
x467 1
x468 0
x469 1
x470 0
x471 1
x472 0
x473 1
x474 1
x475 1
x476 1
x477 1
x478 0
x479 1
x480 0
x481 0
x482 1
x483 1
x484 0
x485 1
x486 0
x487 1
x488 1
x489 1
x490 1
x491 1
x492 1
x493 1
x494 0
x495 0
x496 1
x497 1
x498 1
x499 1
x500 1
x501 1
x502 0
x503 0
x504 0
x505 0
x506 0
x507 0
x508 0
x509 1
x510 1
x511 0
x512 0
x513 0
x514 0
x515 0
x516 1
x517 0
x518 1
x519 1
x520 1
x521 0
x522 1
x523 1
x524 1
x525 0
x526 0
x527 1
x528 1
x529 1
x530 1
x531 0
x532 0
x533 1
x534 0
x535 1
x536 1
x537 1
x538 1
x539 1
x540 1
x541 1
x542 0
x543 0
x544 1
x545 1
x546 1
x547 1
x548 0
x549 1
x550 0
x551 1
x552 1
x553 0
x554 1
x555 1
x556 1
x557 0
x558 1
x559 1
x560 0
x561 0
x562 1
x563 1
x564 1
x565 1
x566 0
x567 1
x568 1
x569 0
x570 1
x571 1
x572 0
x573 1
x574 1
x575 1
x576 0
x577 1
x578 1
x579 1
x580 0
x581 1
x582 1
x583 1
x584 1
x585 0
x586 1
x587 1
x588 1
x589 0
x590 1
x591 1
x592 0
x593 1
x594 1
x595 1
x596 0
x597 1
x598 1
x599 1
x600 0
x601 1
x602 1
x603 1
x604 1
x605 0
x606 1
x607 1
x608 1
x609 1
x610 1
x611 0
x612 0
x613 1
x614 0
x615 1
x616 0
x617 1
x618 0
x619 0
x620 0
x621 1
x622 0
x623 0
x624 0
x625 0
x626 1
x627 0
x628 0
x629 0
x630 0
x631 0
x632 0
x633 1
x634 1
x635 1
x636 1
x637 0
x638 1
x639 0
x640 1
x641 1
x642 1
x643 0
x644 1
x645 1
x646 1
x647 1
x648 0
x649 1
x650 1
x651 1
x652 1
x653 1
x654 0
x655 0
x656 1
x657 1
x658 1
x659 1
x660 0
x661 0
x662 0
x663 1
x664 1
x665 1
x666 0
x667 1
x668 1
x669 1
x670 1
x671 0
x672 1
x673 1
x674 1
x675 1
x676 1
x677 0
x678 1
x679 1
x680 1
x681 0
x682 0
x683 0
x684 1
x685 0
x686 1
x687 0
x688 0
x689 0
x690 1
x691 0
x692 0
x693 0
x694 0
x695 1
x696 0
x697 0
x698 0
x699 0
x700 0
x701 1
x702 0
x703 0
x704 0
x705 1
x706 1
x707 1
x708 1
x709 0
x710 1
x711 0
x712 1
x713 1
x714 1
x715 0
x716 1
x717 1
x718 1
x719 1
x720 0
x721 1
x722 1
x723 1
x724 1
x725 1
x726 0
x727 1
x728 1
x729 0
x730 0
x731 1
x732 0
x733 1
x734 1
x735 0
x736 1
x737 1
x738 0
x739 1
x740 1
x741 0
x742 1
x743 1
x744 1
x745 1
x746 1
x747 0
x748 1
x749 0
x750 1
x751 1
x752 1
x753 1
x754 1
x755 0
x756 1
x757 1
x758 0
x759 1
x760 1
x761 1
x762 1
x763 1
x764 1
x765 0
x766 1
x767 0
x768 1
x769 1
x770 1
x771 1
x772 1
x773 0
x774 1
x775 1
x776 0
x777 1
x778 1
x779 1
x780 1
x781 0
x782 1
x783 1
x784 1
x785 0
x786 1
x787 0
x788 0
x789 0
x790 0
x791 0
x792 1
x793 0
x794 1
x795 1
x796 0
x797 0
x798 0
x799 1
x800 0
x801 0
x802 0
x803 0
x804 0
x805 1
x806 0
x807 1
x808 1
x809 1
x810 1
x811 1
x812 1
x813 1
x814 0
x815 1
x816 0
x817 1
x818 1
x819 1
x820 1
x821 1
x822 1
x823 1
x824 0
x825 0
x826 0
x827 0
x828 1
x829 1
x830 1
x831 1
x832 1
x833 1
x834 1
x835 0
x836 1
x837 0
x838 1
x839 1
x840 1
x841 1
x842 1
x843 1
x844 1
x845 0
x846 1
x847 1
x848 0
x849 1
x850 0
x851 0
x852 0
x853 1
x854 0
x855 0
x856 0
x857 1
x858 0
x859 1
x860 0
x861 0
x862 0
x863 1
x864 0
x865 0
x866 0
x867 1
x868 0
x869 0
x870 0
x871 1
x872 0
x873 1
x874 1
x875 1
x876 1
x877 1
x878 1
x879 1
x880 0
x881 1
x882 0
x883 1
x884 1
x885 0
x886 1
x887 1
x888 1
x889 1
x890 0
x891 1
x892 1
x893 0
x894 1
x895 0
x896 0
x897 1
x898 0
x899 0
x900 0
x901 1
x902 0
x903 0
x904 1
x905 1
x906 0
x907 0
x908 0
x909 0
x910 1
x911 0
x912 0
x913 0
x914 1
x915 0
x916 0
x917 1
x918 0
x919 0
x920 1
x921 1
x922 0
x923 1
x924 1
x925 1
x926 0
x927 1
x928 1
x929 1
x930 1
x931 0
x932 1
x933 1
x934 1
x935 0
x936 1
x937 1
x938 1
x939 0
x940 1
x941 1
x942 0
x943 1
x944 0
x945 0
x946 1
x947 1
x948 0
x949 1
x950 1
x951 1
x952 0
x953 1
x954 1
x955 1
x956 1
x957 1
x958 1
x959 1
x960 1
x961 0
x962 1
x963 1
x964 1
x965 0
x966 1
x967 1
x968 0
x969 1
x970 0
x971 1
x972 0
x973 1
x974 1
x975 0
x976 1
x977 0
x978 1
x979 0
x980 1
x981 1
x982 1
x983 1
x984 1
x985 1
x986 1
x987 1
x988 0
x989 1
x990 1
x991 1
x992 0
x993 1
x994 1
x995 0
x996 1
x997 0
x998 1
x999 1
x1000 0
x1001 1
x1002 1
x1003 1
x1004 1
x1005 0
x1006 1
x1007 0
x1008 1
x1009 1
x1010 1
x1011 0
x1012 1
x1013 1
x1014 1
x1015 0
x1016 1
x1017 1
x1018 1
x1019 1
x1020 0
x1021 1
x1022 1
x1023 0
x1024 1
x1025 0
x1026 1
x1027 1
x1028 1
x1029 1
x1030 0
x1031 0
x1032 0
x1033 0
x1034 1
x1035 1
x1036 1
x1037 0
x1038 0
x1039 0
x1040 0
x1041 1
x1042 0
x1043 0
x1044 1
x1045 0
x1046 0
x1047 0
x1048 0
x1049 1
x1050 0
x1051 0
x1052 1
x1053 0
x1054 1
x1055 0
x1056 0
x1057 0
x1058 0
x1059 0
x1060 0
x1061 1
x1062 1
x1063 1
x1064 0
x1065 1
x1066 0
x1067 1
x1068 1
x1069 1
x1070 1
x1071 1
x1072 1
x1073 1
x1074 0
x1075 1
x1076 1
x1077 1
x1078 1
x1079 0
x1080 1
x1081 1
x1082 0
x1083 1
x1084 0
x1085 1
x1086 1
x1087 1
x1088 1
x1089 0
x1090 0
x1091 1
x1092 1
x1093 1
x1094 1
x1095 0
x1096 1
x1097 0
x1098 1
x1099 1
x1100 1
x1101 1
x1102 1
x1103 1
x1104 1
x1105 0
x1106 1
x1107 1
x1108 1
x1109 1
x1110 0
x1111 1
x1112 1
x1113 0
x1114 1
x1115 0
x1116 1
x1117 1
x1118 1
x1119 1
x1120 0
x1121 1
x1 1
x2 0
x3 1
x4 0
x5 0
x6 1
x7 0
x8 0
x9 0
x10 0
x11 0
x12 1
x13 0
x14 0
x15 0
x16 0
x17 1
x18 0
x19 0
x20 1
x21 0
x22 0
x23 0
x24 0
x25 1
x26 0
x27 1
x28 0
x29 0
x30 1
x31 0
x32 0
x33 0
x34 1
x35 0
x36 0
x37 0
x38 0
x39 1
x40 0
x41 0
x42 0
x43 0
x44 0
x45 1
x46 0
x47 0
x48 1
x49 0
x50 0
x51 0
x52 0
x53 1
x54 0
x55 0
x56 1
x57 0
x58 1
x59 0
x60 0
x61 0
x62 0
x63 1
x64 0
x65 0
